#SOLVERNAME# PAJ_CPLEX_MOSEK_msddualonlynoscale
#SOLVER# Pajarito.PajaritoSolver(3,3600.0,1.0e-5,true,CPLEX.CplexSolver(Any[(:CPX_PARAM_THREADS,1),(:CPX_PARAM_SCRIND,1),(:CPX_PARAM_EPINT,1.0e-8),(:CPX_PARAM_EPRHS,1.0e-7),(:CPX_PARAM_EPGAP,1.0e-5)]),Pajarito.UnsetSolver(),0,false,true,Mosek.MosekMathProgSolverInterface.MosekSolver(Any[(:LOG,0),(:NUM_THREADS,1)]),true,true,false,false,true,false,false,true,false,true,true,true,true,false,false,2.0,true,false,false,false,1.0e-10,1.0e-6)
#INSTANCE# estein5_nr21.cbf.gz
#TIMELIMIT# 3600.0

Problem dimensions:
       variables |       132
     constraints |       211
   nonzeros in A |       258

Cones summary:
Cone             | Count     | Min dim.  | Max dim. 
    Second order |        18 |         3 |         3

Variable types:
      continuous |       114
         integer |        18

Transforming data...               0.00s

Creating conic subproblem...       0.00s

Building MIP model...              0.00s

Solving conic relaxation...        0.00s
 - Relaxation status    =        Optimal
 - Relaxation objective =      -0.000000

Flow cuts applied:  2
Mixed integer rounding cuts applied:  2
Gomory fractional cuts applied:  3
User cuts applied:  30

Root node processing (before b&c):
  Real time             =    0.32 sec. (8.90 ticks)
Sequential b&c:
  Real time             =    0.01 sec. (4.96 ticks)
                          ------------
Total (root+branch&cut) =    0.33 sec. (13.86 ticks)
Warning: Control callbacks may disable some MIP features.
Tried aggregator 2 times.
MIP Presolve eliminated 160 rows and 21 columns.
Aggregator did 36 substitutions.
Reduced MIP has 222 rows, 111 columns, and 676 nonzeros.
Reduced MIP has 11 binaries, 0 generals, 0 SOSs, and 0 indicators.
Presolve time = 0.00 sec. (0.67 ticks)
Probing fixed 0 vars, tightened 12 bounds.
Probing time = 0.00 sec. (0.05 ticks)
Clique table members: 5.
MIP emphasis: balance optimality and feasibility.
MIP search method: traditional branch-and-cut.
Parallel mode: none, using 1 thread.
Root relaxation solution time = 0.00 sec. (0.77 ticks)

        Nodes                                         Cuts/
   Node  Left     Objective  IInf  Best Integer    Best Bound    ItCnt     Gap

      0     0        0.0000     9                      0.0000       70         
*     0+    0                            1.8911        0.0000           100.00%
      0     0        0.0000     9        1.8911      Cuts: 27      123  100.00%
*     0+    0                            1.8911        0.0000           100.00%
      0     0        0.0000    10        1.8911      Cuts: 21      171  100.00%
*     0+    0                            1.8244        0.0000           100.00%
      0     2        0.0000     9        1.8244        0.0000      171  100.00%
Elapsed time = 0.05 sec. (34.07 ticks, tree = 0.01 MB, solutions = 3)
*    28    21      integral     0        1.8182        0.1304      992   92.83%
    398   150        1.4710     1        1.8182        0.9511    10212   47.69%

Starting MIP-solver-driven algorithm

MIP-solver-driven algorithm summary:
 - Status               =        Optimal
 - Best feasible        =  +1.818179e+00
 - Best bound           =  +1.818179e+00
 - Relative opt. gap    =      1.371e-09
 - Total time (s)       =       5.19e-01

Timers (s):
 - Setup                =   1.65e-03
 -- Transform data      =   1.13e-04
 -- Create conic data   =   1.06e-03
 -- Create MIP data     =   4.77e-04
 - Algorithm            =   5.17e-01
 -- Solve relaxation    =   2.98e-03
 -- Get relaxation cuts =   2.21e-03
 -- MIP solver driving  =   5.11e-01
 -- Solve subproblems   =   3.39e-02
 -- Get subproblem cuts =   2.63e-03
 -- Get primal cuts     =   2.32e-04

Counters:
 - Lazy callbacks       =    45
 -- Integer repeats     =    20
 -- Conic subproblems   =    25
 --- Infeasible         =     0
 --- Optimal            =    25
 --- Suboptimal         =     0
 --- UserLimit          =     0
 --- ConicFailure       =     0
 --- Other status       =     0
 -- Feasible solutions  =    25
 --- From subproblems   =    25
 --- In lazy callback   =     0
 - Heuristic callbacks  =   479
 -- Solutions passed    =     4

Solution returned by conic solver

Outer-approximation cuts added:
Cone             | Relax.    | Violated  | Nonviol. 
    Second order |        27 |       216 |         0

0 numerically unstable cone duals encountered

Distance to feasibility (negative indicates strict feasibility):
Cone             | Variable  | Constraint
          Linear |  0.00e+00 |  1.34e-09
    Second order | -3.63e-10 |        NA

Distance to integrality of integer/binary variables:
         integer |  0.00e+00


Flow cuts applied:  1
Mixed integer rounding cuts applied:  2
Lift and project cuts applied:  1
Gomory fractional cuts applied:  2
User cuts applied:  216

Root node processing (before b&c):
  Real time             =    0.05 sec. (34.06 ticks)
Sequential b&c:
  Real time             =    0.46 sec. (418.21 ticks)
                          ------------
Total (root+branch&cut) =    0.51 sec. (452.28 ticks)
#STATUS# Optimal
#OBJVAL# 1.8181793089657643
#OBJBOUND# 1.818179306473176
#TIMESOLVER# 0.518589973449707
#TIMEALL# 0.5192520618438721
#SOLUTION# [0.2600035588103714,0.5391721388783561,0.5000008562070158,0.6777340233899553,0.7399906527223337,0.5391695511950254,0.760263,0.23999644052037084,0.36082786062835714,0.22226597680847937,-8.568763369516874e-7,0.22226597629941555,0.760263,-0.23999065339171177,0.36083044831175287,0.760263,0.6199964398509967,0.08082786112158057,0.760263,0.3799991424543219,-0.05773402338993935,0.16166687566398297,0.14000934598235418,0.08083044883001184,0.760263,0.4799964400976018,-0.35917213810335835,0.760263,0.23999914270093328,-0.4977340226148809,0.35916955048408533,9.346185539708904e-6,-0.3591695499991548,0.3591721393093352,-3.5590568726461965e-6,-0.3591721380840657,0.760263,-0.2400008564535425,-0.49773402261488325,0.760263,-0.47999065296894017,-0.35916955041999116,0.16166056956908167,-0.1400035588103714,0.08082786112164382,0.760263,-0.38000085620701585,-0.05773402338995522,0.760263,-0.6199906527223337,0.08083044880497456,0.27712469913210486,-0.2399972974044505,-0.1385618845160019,0.760263,-0.47998709391206873,2.5876833762278803e-6,0.27711949799869495,-0.23998979668551307,0.13856447229314947,0.0,0.22226597680847937,0.0,0.0,0.0,0.16166687566398297,0.0,0.0,0.35916955048408533,0.3591721393093352,0.0,0.0,0.16166056956908167,0.0,0.0,0.27712469913210486,0.0,0.27711949799869495,0.0,1.0,-0.0,0.0,-0.0,1.0,0.0,-0.0,1.0,1.0,0.0,0.0,1.0,0.0,0.0,1.0,0.0,1.0,1.0,0.0,1.0,1.0,1.0,0.0,1.0,1.0,0.0,0.0,1.0,1.0,0.0,1.0,1.0,0.0,1.0,0.0,-0.0,0.5379970231915207,-0.0,-0.0,-0.0,0.598596124336017,-0.0,-0.0,0.4010934495159147,0.4010908606906648,-0.0,-0.0,0.5986024304309183,-0.0,-0.0,0.48313830086789517,-0.0,0.48314350200130507]
